&control
   prefix = 'V'
   calculation = 'scf'
   restart_mode = 'from_scratch'
   wf_collect = .false.
   tstress = .true.
   tprnfor = .true.
   outdir = './'
   wfcdir = './'
   pseudo_dir = './'
/
&system
   ibrav = 1
   celldm(1) = 35
   nat = 1
   ntyp = 1
 !  nbnd = 5 !commented out on 11/29/25
   ecutwfc = 60.0
   ecutrho = 480
   tot_magnetization = 1
   occupations='smearing'
   smearing='gaussian'
   degauss=0.01
   nspin=2

/
&electrons
   electron_maxstep = 100
   conv_thr = 1.0d-10
   mixing_mode = 'plain'
   mixing_beta = 0.7 
   mixing_ndim = 8
   diagonalization = 'david'
   diago_david_ndim = 4
   diago_full_acc = .true.
/

ATOMIC_SPECIES
  Zr  91.224  Zr.upf

ATOMIC_POSITIONS crystal
  Zr       0.5     0.5     0.5
  
K_POINTS automatic
1 1 1 0 0 0