&control
   prefix = 'K4SnZrO6'
   calculation = 'vc-relax'
   restart_mode = 'from_scratch'
   wf_collect = .false.
   tstress = .true.
   tprnfor = .true.
   outdir = './'
   wfcdir = './'
   pseudo_dir = './'
   forc_conv_thr = 1.0D-5
   nstep = 500
/
&system
   ibrav = 0
   nat = 12
   ntyp = 4
 !  nbnd = 5 !commented out on 11/29/25
   ecutwfc = 60.0
   ecutrho = 480
/
&electrons
   electron_maxstep = 300
   conv_thr = 1.0d-10
   mixing_mode = 'plain'
   mixing_beta = 0.7
   mixing_ndim = 8
   diagonalization = 'david'
   diago_david_ndim = 4
   diago_full_acc = .true.
/
&ions
/

&cell
/
CELL_PARAMETERS angstrom
   6.730665326  -0.031041417  -0.031041417
  -0.031041417   6.730665326  -0.031041417
  -0.031041417  -0.031041417   6.730665326
ATOMIC_SPECIES
  K   39.098  K.upf
  Zr  91.224  Zr.upf
  Sn  118.71  Sn.upf
  O   15.999  O.upf
ATOMIC_POSITIONS angstrom
K             0.0562414554        0.0562414554        0.0562414554
K             3.3778648027        3.3778648027       -0.0509104741
K             3.3778648027       -0.0509104741        3.3778648027
K            -0.0509104741        3.3778648027        3.3778648027
Sn            1.4626888698        1.4626888698        1.4626888698
Zr            5.3655832258        5.3655832258        5.3655832258
O             2.3988996722        0.0773646520        0.0773646520
O             4.3451827402       -0.2411984609       -0.2411984609
O             0.0773646520        2.3988996722        0.0773646520
O            -0.2411984609        4.3451827402       -0.2411984609
O             0.0773646520        0.0773646520        2.3988996722
O            -0.2411984609       -0.2411984609        4.3451827401
K_POINTS automatic
5 5 5 0 0 0