&control
   prefix = 'K4ZrSnO6'
   calculation = 'vc-relax'
   restart_mode = 'from_scratch'
   wf_collect = .false.
   tstress = .true.
   tprnfor = .true.
   outdir = './'
   wfcdir = './'
   pseudo_dir = './'
   forc_conv_thr = 1.0D-5
   nstep = 250
/
&system
   ibrav = 0
   nat = 12
   ntyp = 5
 !  nbnd = 5 !commented out on 11/29/25
   ecutwfc = 60.0
   ecutrho = 480
/
&electrons
   electron_maxstep = 400
   conv_thr = 1.0d-10
   mixing_mode = 'plain'
   mixing_beta = 0.7
   mixing_ndim = 8
   diagonalization = 'david'
   diago_david_ndim = 4
   diago_full_acc = .true.
/
&ions
/

&cell
/
CELL_PARAMETERS angstrom
   6.615840140   0.045180890  -0.054830365
   0.043697871   6.609783236   0.043697871
  -0.054830365   0.045180890   6.615840140

ATOMIC_SPECIES
  Na  22.960  Na.upf
  K   39.098  K.upf
  Zr  91.224  Zr.upf
  Sn  118.71  Sn.upf
  O   15.999  O.upf
ATOMIC_POSITIONS angstrom
Na            0.0358832980        0.0387383787        0.0358832980
K             3.3397277710        3.3414744882       -0.0207385492
Na            3.2689670787        0.0721928193        3.2689670787
K            -0.0207385492        3.3414744882        3.3397277710
Sn            1.4913946813        1.4121843304        1.4913946813
Zr            5.2156076469        5.3323955691        5.2156076469
O             2.2351480530        0.1208916755        0.0883743703
O             4.3746661435       -0.1419175476       -0.2163187824
O             0.1552448702        2.2378577605        0.1552448702
O            -0.1538336438        4.3661689617       -0.1538336438
O             0.0883743703        0.1208916755        2.2351480530
O            -0.2163187824       -0.1419175476        4.3746661435
  
K_POINTS automatic
5 5 5 0 0 0