&control
   prefix = 'K4ZrSnO6'
   calculation = 'vc-relax'
   restart_mode = 'from_scratch'
   wf_collect = .false.
   tstress = .true.
   tprnfor = .true.
   outdir = './'
   wfcdir = './'
   pseudo_dir = './'
   forc_conv_thr = 1.0D-5
   nstep = 250
/
&system
   ibrav = 0
   nat = 12
   ntyp = 4
 !  nbnd = 5 !commented out on 11/29/25
   ecutwfc = 60.0
   ecutrho = 480
/
&electrons
   electron_maxstep = 300
   conv_thr = 1.0d-10
   mixing_mode = 'plain'
   mixing_beta = 0.7
   mixing_ndim = 8
   diagonalization = 'david'
   diago_david_ndim = 4
   diago_full_acc = .true.
/
&ions
/

&cell
/
CELL_PARAMETERS angstrom
   6.615680924   0.729098023   0.729098023
   0.729098023   6.615680924   0.729098023
   0.729098023   0.729098023   6.615680924
ATOMIC_SPECIES
  K   39.098  K.upf
  Zr  91.224  Zr.upf
  Sn  118.71  Sn.upf
  O   15.999  O.upf
ATOMIC_POSITIONS angstrom
K            -0.0749073834       -0.0749073834       -0.0749073834
K             4.5351540928        4.5351540928        0.9692519863
K             4.5351540928        0.9692519863        4.5351540928
K             0.9692519863        4.5351540928        4.5351540928
Zr            2.5361178867        2.5361178867        2.5361178867
Sn            4.3779821341        4.3779821341        4.3779821341
O             4.4193151185        2.3826725268        2.3826725268
O             1.7991865425       -1.8204843095       -1.8204843095
O             2.3826725268        4.4193151185        2.3826725268
O            -1.8204843095        1.7991865425       -1.8204843095
O             2.3826725268        2.3826725268        4.4193151185
O            -1.8204843095       -1.8204843095        1.7991865425
K_POINTS automatic
5 5 5 0 0 0